n= 4
m= 30
1000
2000
2500
3000
232	12	2
405	30	5
533	20	4
422	24	3
56	49	7
79	18	2
575	24	3
563	6	1
426	42	6
298	35	7
570	35	5
33	42	6
434	27	3
563	54	6
167	32	4
352	42	6
582	15	3
280	27	3
507	21	3
93	63	7
408	54	6
145	35	7
323	36	4
85	36	4
395	32	4
29	30	6
139	24	3
377	21	3
68	28	4
352	24	4
